CODE/SKINNY_64-128/xor_problem.lp
Minimize
obj
Subject To
x0 + x1 + x2 + x3 + x4 + x5 + x6 + x7 + x8 + x9 + x10 + x11 + x12 + x13 + x14 + x15 + x16 + x17 + x18 + x19 + x20 + x21 + x22 + x23 + x24 + x25 + x26 + x27 + x28 + x29 + x30 + x31 - obj = 0
x0 + x1 + x2 + x3 + x4 + x5 + x6 + x7 + x8 + x9 + x10 + x11 + x12 + x13 + x14 + x15 + x16 + x17 + x18 + x19 + x20 + x21 + x22 + x23 + x24 + x25 + x26 + x27 + x28 + x29 + x30 + x31 >= 1
 + 1 x0 + 1 x1 + 1 x2 - 2 y0 = 0
 + 1 x6 + 1 x7 + 1 x8 - 2 y2 = 0
 + 1 x9 + 1 x10 + 1 x11 - 2 y3 = 0
 + 1 x12 - 2 y4 = 0
 + 1 x13 - 2 y5 = 0
 + 1 x14 - 2 y6 = 0
 + 1 x15 - 2 y7 = 0
 + 1 x6 + 1 x8 + 1 x13 - 2 y8 = 0
 + 1 x9 + 1 x11 + 1 x14 - 2 y9 = 0
 + 1 x0 + 1 x2 + 1 x15 - 2 y10 = 0
 + 1 x9 - 2 y12 = 0
 + 1 x3 - 2 y14 = 0
 + 1 x6 - 2 y15 = 0
 + 1 x3 + 1 x19 + 1 x20 + 1 x21 - 2 y17 = 0
 + 1 x6 + 1 x22 + 1 x23 + 1 x24 - 2 y18 = 0
 + 1 x25 + 1 x26 + 1 x27 - 2 y19 = 0
 + 1 x1 + 1 x28 - 2 y20 = 0
 + 1 x4 - 2 y21 = 0
 + 1 x7 + 1 x30 - 2 y22 = 0
 + 1 x10 + 1 x31 - 2 y23 = 0
 + 1 x22 + 1 x24 + 1 x29 - 2 y24 = 0
 + 1 x12 - 2 y25 = 0
 + 1 x16 + 1 x18 + 1 x31 - 2 y26 = 0
 + 1 x19 + 1 x21 + 1 x28 - 2 y27 = 0
 + 1 x25 - 2 y28 = 0
 + 1 x5 + 1 x16 - 2 y29 = 0
 + 1 x8 + 1 x19 - 2 y30 = 0
 + 1 x22 - 2 y31 = 0
 + 1 x16 - 2 y32 = 0
 + 1 x19 - 2 y33 = 0
 + 1 x22 - 2 y34 = 0
 + 1 x25 - 2 y35 = 0
 + 1 x17 - 2 y36 = 0
 + 1 x20 - 2 y37 = 0
 + 1 x23 - 2 y38 = 0
 + 1 x26 - 2 y39 = 0
 + 1 x31 - 2 y40 = 0
 + 1 x28 - 2 y41 = 0
 + 1 x29 - 2 y42 = 0
 + 1 x30 - 2 y43 = 0
 + 1 x18 - 2 y44 = 0
 + 1 x21 - 2 y45 = 0
 + 1 x24 - 2 y46 = 0
 + 1 x27 - 2 y47 = 0
Binary
 x0
 x1
 x2
 x3
 x4
 x5
 x6
 x7
 x8
 x9
 x10
 x11
 x12
 x13
 x14
 x15
 x16
 x17
 x18
 x19
 x20
 x21
 x22
 x23
 x24
 x25
 x26
 x27
 x28
 x29
 x30
 x31
INTEGER
y0 y2 y3 y4 y5 y6 y7 y8 y9 y10 y12 y14 y15 y17 y18 y19 y20 y21 y22 y23 y24 y25 y26 y27 y28 y29 y30 y31 y32 y33 y34 y35 y36 y37 y38 y39 y40 y41 y42 y43 y44 y45 y46 y47 
End
